NAME 
ROWS
 N  OBJ
 L  R0      
 L  R1      
 L  R2      
 E  R3      
 E  R4      
 E  R5      
 E  R6      
 E  R7      
 E  R8      
 E  R9      
 E  R10     
 E  R11     
 E  R12     
 E  R13     
 E  R14     
 E  R15     
 E  R16     
 E  R17     
 E  R18     
 E  R19     
 E  R20     
 E  R21     
 E  R22     
COLUMNS
    MARKER    'MARKER'                 'INTORG'
    I0(8)     OBJ       -196
    I0(8)     R0        -113
    I0(8)     R1        135
    I0(8)     R2        189
    I0(8)     R5        12
    I0(8)     R7        12
    I0(8)     R10       12
    I0(8)     R11       15
    I0(8)     R22       1
    I1(10)    OBJ       -33
    I1(10)    R0        -166
    I1(10)    R1        -156
    I1(10)    R2        10
    I1(10)    R3        2
    I1(10)    R4        4
    I1(10)    R5        10
    I1(10)    R6        19
    I1(10)    R7        10
    I1(10)    R11       17
    I1(10)    R22       1
    I2(10)    OBJ       -1
    I2(10)    R0        15
    I2(10)    R1        105
    I2(10)    R2        6
    I2(10)    R3        3
    I2(10)    R4        6
    I2(10)    R5        14
    I2(10)    R6        11
    I2(10)    R7        8
    I2(10)    R10       6
    I2(10)    R22       1
    I3(9)     OBJ       38
    I3(9)     R0        -21
    I3(9)     R1        167
    I3(9)     R2        187
    I3(9)     R4        8
    I3(9)     R5        9
    I3(9)     R7        16
    I3(9)     R9        18
    I3(9)     R11       10
    I3(9)     R22       1
    I4(9)     OBJ       -9
    I4(9)     R0        11
    I4(9)     R1        17
    I4(9)     R2        98
    I4(9)     R4        4
    I4(9)     R5        13
    I4(9)     R6        11
    I4(9)     R8        5
    I4(9)     R12       5
    I4(9)     R22       1
    I5(10)    OBJ       -173
    I5(10)    R0        183
    I5(10)    R1        149
    I5(10)    R2        -84
    I5(10)    R4        12
    I5(10)    R5        18
    I5(10)    R6        3
    I5(10)    R8        5
    I5(10)    R11       16
    I5(10)    R12       6
    I5(10)    R22       1
    I6(13)    OBJ       -131
    I6(13)    R0        -78
    I6(13)    R1        50
    I6(13)    R2        -7
    I6(13)    R3        14
    I6(13)    R4        17
    I6(13)    R5        16
    I6(13)    R6        1
    I6(13)    R7        19
    I6(13)    R8        1
    I6(13)    R9        8
    I6(13)    R10       19
    I6(13)    R11       17
    I6(13)    R22       1
    I7(10)    OBJ       -37
    I7(10)    R0        -62
    I7(10)    R1        169
    I7(10)    R2        176
    I7(10)    R3        17
    I7(10)    R4        7
    I7(10)    R5        18
    I7(10)    R6        5
    I7(10)    R9        19
    I7(10)    R11       16
    I7(10)    R22       1
    I8(9)     OBJ       -190
    I8(9)     R0        145
    I8(9)     R1        185
    I8(9)     R2        -20
    I8(9)     R4        1
    I8(9)     R5        18
    I8(9)     R8        15
    I8(9)     R10       4
    I8(9)     R12       1
    I8(9)     R22       1
    I9(11)    OBJ       -124
    I9(11)    R0        153
    I9(11)    R1        -159
    I9(11)    R2        -72
    I9(11)    R4        18
    I9(11)    R5        14
    I9(11)    R6        14
    I9(11)    R8        12
    I9(11)    R10       1
    I9(11)    R11       16
    I9(11)    R12       19
    I9(11)    R22       1
    MARKER    'MARKER'                 'INTEND'
    C10(14)   OBJ       -4
    C10(14)   R0        -7
    C10(14)   R1        -4
    C10(14)   R2        -7
    C10(14)   R4        12
    C10(14)   R5        2
    C10(14)   R10       2
    C10(14)   R11       15
    C10(14)   R12       11
    C10(14)   R13       18
    C10(14)   R16       9
    C10(14)   R17       6
    C10(14)   R18       9
    C10(14)   R19       9
    C10(14)   R21       9
    C11(11)   OBJ       -8
    C11(11)   R0        5
    C11(11)   R1        -3
    C11(11)   R2        -4
    C11(11)   R7        3
    C11(11)   R9        3
    C11(11)   R12       2
    C11(11)   R14       19
    C11(11)   R16       19
    C11(11)   R17       8
    C11(11)   R18       1
    C11(11)   R21       8
    C12(11)   OBJ       4
    C12(11)   R0        -4
    C12(11)   R1        -2
    C12(11)   R2        -10
    C12(11)   R4        9
    C12(11)   R8        3
    C12(11)   R12       5
    C12(11)   R13       9
    C12(11)   R15       6
    C12(11)   R16       18
    C12(11)   R19       9
    C12(11)   R20       2
    C13(11)   OBJ       -10
    C13(11)   R0        2
    C13(11)   R1        6
    C13(11)   R2        -3
    C13(11)   R4        19
    C13(11)   R5        9
    C13(11)   R7        -1
    C13(11)   R9        10
    C13(11)   R15       19
    C13(11)   R16       13
    C13(11)   R19       16
    C13(11)   R20       7
    C14(12)   OBJ       -7
    C14(12)   R0        7
    C14(12)   R1        -1
    C14(12)   R2        4
    C14(12)   R7        13
    C14(12)   R9        12
    C14(12)   R10       18
    C14(12)   R11       15
    C14(12)   R13       13
    C14(12)   R14       -1
    C14(12)   R15       14
    C14(12)   R19       3
    C14(12)   R21       14
    C15(14)   OBJ       -6
    C15(14)   R0        -4
    C15(14)   R1        -1
    C15(14)   R2        6
    C15(14)   R4        15
    C15(14)   R5        1
    C15(14)   R7        12
    C15(14)   R8        15
    C15(14)   R9        5
    C15(14)   R10       5
    C15(14)   R11       7
    C15(14)   R13       16
    C15(14)   R15       9
    C15(14)   R18       15
    C15(14)   R19       2
    C16(13)   OBJ       -7
    C16(13)   R0        -10
    C16(13)   R1        -5
    C16(13)   R2        -7
    C16(13)   R3        6
    C16(13)   R5        8
    C16(13)   R7        7
    C16(13)   R8        11
    C16(13)   R10       5
    C16(13)   R15       14
    C16(13)   R16       15
    C16(13)   R17       17
    C16(13)   R18       17
    C16(13)   R20       7
    C17(11)   OBJ       3
    C17(11)   R0        3
    C17(11)   R1        -8
    C17(11)   R2        3
    C17(11)   R3        16
    C17(11)   R6        17
    C17(11)   R8        5
    C17(11)   R9        4
    C17(11)   R12       8
    C17(11)   R13       12
    C17(11)   R15       10
    C17(11)   R16       6
    C18(12)   OBJ       -10
    C18(12)   R0        2
    C18(12)   R1        -10
    C18(12)   R2        -4
    C18(12)   R5        12
    C18(12)   R6        9
    C18(12)   R7        17
    C18(12)   R10       3
    C18(12)   R11       3
    C18(12)   R14       14
    C18(12)   R15       18
    C18(12)   R17       9
    C18(12)   R20       3
    C19(12)   OBJ       3
    C19(12)   R0        -5
    C19(12)   R1        9
    C19(12)   R2        -10
    C19(12)   R3        7
    C19(12)   R4        2
    C19(12)   R6        2
    C19(12)   R7        14
    C19(12)   R11       14
    C19(12)   R14       3
    C19(12)   R15       1
    C19(12)   R16       -1
    C19(12)   R20       8
    C20(1)    R3        1
    C21(1)    R4        1
    C22(1)    R5        1
    C23(1)    R6        1
    C24(1)    R7        1
    C25(1)    R8        1
    C26(1)    R9        1
    C27(1)    R10       1
    C28(1)    R11       1
    C29(1)    R12       1
    C30(1)    R13       1
    C31(1)    R14       1
    C32(1)    R15       1
    C33(1)    R16       1
    C34(1)    R17       1
    C35(1)    R18       1
    C36(1)    R19       1
    C37(1)    R20       1
    C38(1)    R21       1
    C39(1)    R22       1
RHS
    RHS1      R0        2.1017567230511088e+02
    RHS1      R1        4.5329358220715613e+02
    RHS1      R2        7.0799471962722762e+01
    RHS1      R3        97
    RHS1      R4        95
    RHS1      R5        80
    RHS1      R6        61
    RHS1      R7        60
    RHS1      R8        50
    RHS1      R9        60
    RHS1      R10       93
    RHS1      R11       99
    RHS1      R12       65
    RHS1      R13       62
    RHS1      R14       86
    RHS1      R15       68
    RHS1      R16       65
    RHS1      R17       61
    RHS1      R18       82
    RHS1      R19       85
    RHS1      R20       85
    RHS1      R21       73
    RHS1      R22       3
BOUNDS
 UP BND1      I0(8)     1
 UP BND1      I1(10)    1
 UP BND1      I2(10)    1
 UP BND1      I3(9)     1
 UP BND1      I4(9)     1
 UP BND1      I5(10)    1
 UP BND1      I6(13)    1
 UP BND1      I7(10)    1
 UP BND1      I8(9)     1
 UP BND1      I9(11)    1
ENDATA
